<number of tasks>
50

<cycle time>
1000

<order strength>
0.204


<task times>
1 324
2 24
3 24
4 47
5 277
6 149
7 143
8 157
9 209
10 143
11 210
12 53
13 67
14 135
15 146
16 72
17 130
18 133
19 262
20 87
21 63
22 116
23 238
24 78
25 140
26 208
27 120
28 125
29 184
30 200
31 207
32 265
33 179
34 148
35 99
36 35
37 178
38 65
39 64
40 191
41 141
42 66
43 63
44 105
45 25
46 116
47 149
48 127
49 125
50 214

<precedence relations>
1,8
2,8
3,8
4,8
5,8
6,9
7,10
7,11
7,12
7,13
7,14
8,15
8,16
8,17
8,18
8,19
8,20
9,21
10,22
18,24
20,23
21,27
22,25
22,26
23,28
23,30
23,33
23,34
24,29
25,31
25,32
28,35
29,36
30,37
31,40
32,39
32,41
34,38
35,42
36,43
37,43
38,47
39,44
40,45
41,46
42,48
45,50
46,49

<end>
